19:22:45 | INFO    | Run started | run_id: SR_SV_RD_case3_P5_eps9999 | log file: C:\Users\Asus\Documents\GitHub\logistics-model2\internal-logistics-model2\results\SR_SV_RD\case3\SR_SV_RD_case3_P5_eps9999_2026_05_06_19_22.log
19:22:45 | INFO    | Products loaded | sheet=case3 | rows=15
19:22:45 | INFO    | Data loaded | |N|=31 |Nw|=30 |K|=1 |R|=1 |P|=5 | U=30
19:22:45 | INFO    | Big-M | time=491.0 precedence=480.0 wait=465.0 load_lb=20 load_ub=20
19:22:45 | INFO    | Set parameter Username
19:22:45 | INFO    | Set parameter LicenseID to value 2811848
19:22:45 | INFO    | Academic license - for non-commercial use only - expires 2027-04-22
19:22:45 | INFO    | Objective set | primary: min route_duration | tie-break weight on wait: 0.001
19:22:45 | INFO    | Constraint (3) added | total_wait <= 9999
19:22:45 | INFO    | Constraints (4)-(9) added | route structure
19:22:45 | INFO    | Constraints (10)-(12) added | product assignment
19:22:45 | INFO    | Constraints (13)-(15) added | route timing
19:22:45 | INFO    | Constraints (16) added | time consistency
19:22:45 | INFO    | Constraints (17)-(19) added | service times
19:22:45 | INFO    | Constraints (20)-(22) added | precedence, route closure, waiting
19:22:45 | INFO    | Constraints (23)-(27) added | load propagation
19:22:45 | INFO    | Constraints (28)-(32) added | MTZ and route ordering
19:22:45 | INFO    | Set parameter TimeLimit to value 600
19:22:45 | INFO    | Set parameter MIPGap to value 0.01
19:22:45 | INFO    | Set parameter Presolve to value 2
19:22:45 | INFO    | Set parameter LogFile to value "C:\Users\Asus\Documents\GitHub\logistics-model2\internal-logistics-model2\results\SR_SV_RD\case3\result_SR_SV_RD_case3_P5_eps9999_2026_05_06_19_22.log"
19:22:45 | INFO    | Solver configured | TimeLimit=600s | MIPGap=0.01 | gurobi_log=C:\Users\Asus\Documents\GitHub\logistics-model2\internal-logistics-model2\results\SR_SV_RD\case3\result_SR_SV_RD_case3_P5_eps9999_2026_05_06_19_22.log
19:22:45 | INFO    | Optimization starting...
19:22:45 | INFO    | Gurobi Optimizer version 12.0.0 build v12.0.0rc1 (win64 - Windows 10.0 (19045.2))
19:22:45 | INFO    | 
19:22:45 | INFO    | CPU model: 12th Gen Intel(R) Core(TM) i7-12650H, instruction set [SSE2|AVX|AVX2]
19:22:45 | INFO    | Thread count: 10 physical cores, 16 logical processors, using up to 16 threads
19:22:45 | INFO    | 
19:22:45 | INFO    | Non-default parameters:
19:22:45 | INFO    | TimeLimit  600
19:22:45 | INFO    | MIPGap  0.01
19:22:45 | INFO    | Presolve  2
19:22:45 | INFO    | 
19:22:45 | INFO    | Optimize a model with 3852 rows, 1123 columns and 19434 nonzeros
19:22:45 | INFO    | Model fingerprint: 0xc187d9ac
19:22:45 | INFO    | Variable types: 158 continuous, 965 integer (935 binary)
19:22:45 | INFO    | Coefficient statistics:
19:22:45 | INFO    |   Matrix range     [1e+00, 5e+02]
19:22:45 | INFO    |   Objective range  [1e-03, 1e+00]
19:22:45 | INFO    |   Bounds range     [1e+00, 3e+01]
19:22:45 | INFO    |   RHS range        [1e+00, 1e+04]
19:22:45 | INFO    | Presolve removed 3643 rows and 1041 columns
19:22:45 | INFO    | Presolve time: 0.00s
19:22:45 | INFO    | Presolved: 209 rows, 82 columns, 878 nonzeros
19:22:45 | INFO    | Variable types: 24 continuous, 58 integer (51 binary)
19:22:45 | INFO    | Found heuristic solution: objective 113.2650000
19:22:45 | INFO    | Root relaxation presolve removed 17 rows and 1 columns
19:22:45 | INFO    | Root relaxation presolved: 192 rows, 81 columns, 836 nonzeros
19:22:45 | INFO    | 
19:22:45 | INFO    | 
19:22:45 | INFO    | Root relaxation: objective 8.600000e-02, 45 iterations, 0.00 seconds (0.00 work units)
19:22:45 | INFO    | 
19:22:45 | INFO    |     Nodes    |    Current Node    |     Objective Bounds      |     Work
19:22:45 | INFO    |  Expl Unexpl |  Obj  Depth IntInf | Incumbent    BestBd   Gap | It/Node Time
19:22:45 | INFO    | 
19:22:45 | INFO    |      0     0    0.08600    0   13  113.26500    0.08600   100%     -    0s
19:22:45 | INFO    | H    0     0                      96.1990000    0.08600   100%     -    0s
19:22:45 | INFO    | H    0     0                      96.1930000    0.08600   100%     -    0s
19:22:45 | INFO    | H    0     0                      93.1930000    0.08600   100%     -    0s
19:22:45 | INFO    |      0     0    0.08626    0   22   93.19300    0.08626   100%     -    0s
19:22:45 | INFO    |      0     0    0.09000    0   21   93.19300    0.09000   100%     -    0s
19:22:45 | INFO    |      0     0    0.09374    0   24   93.19300    0.09374   100%     -    0s
19:22:45 | INFO    |      0     0    0.09874    0   22   93.19300    0.09874   100%     -    0s
19:22:45 | INFO    |      0     0    0.14800    0   13   93.19300    0.14800   100%     -    0s
19:22:45 | INFO    | H    0     0                      89.1370000    0.14803   100%     -    0s
19:22:45 | INFO    |      0     0    0.14803    0   16   89.13700    0.14803   100%     -    0s
19:22:45 | INFO    |      0     0    0.15150    0   19   89.13700    0.15150   100%     -    0s
19:22:45 | INFO    |      0     0    0.15250    0   16   89.13700    0.15250   100%     -    0s
19:22:45 | INFO    |      0     0    0.15332    0   25   89.13700    0.15332   100%     -    0s
19:22:45 | INFO    |      0     0    0.15363    0   26   89.13700    0.15363   100%     -    0s
19:22:45 | INFO    |      0     0    0.16765    0   24   89.13700    0.16765   100%     -    0s
19:22:45 | INFO    | H    0     0                      88.1350000    0.16831   100%     -    0s
19:22:45 | INFO    |      0     0    0.16831    0   25   88.13500    0.16831   100%     -    0s
19:22:45 | INFO    |      0     0    0.16831    0   26   88.13500    0.16831   100%     -    0s
19:22:45 | INFO    |      0     0    0.16831    0   27   88.13500    0.16831   100%     -    0s
19:22:45 | INFO    |      0     0    0.16831    0   25   88.13500    0.16831   100%     -    0s
19:22:45 | INFO    |      0     0    0.16831    0   25   88.13500    0.16831   100%     -    0s
19:22:45 | INFO    |      0     0    0.16831    0   19   88.13500    0.16831   100%     -    0s
19:22:45 | INFO    |      0     0    0.16831    0   24   88.13500    0.16831   100%     -    0s
19:22:45 | INFO    |      0     0    0.16831    0   22   88.13500    0.16831   100%     -    0s
19:22:45 | INFO    |      0     0    0.16831    0   21   88.13500    0.16831   100%     -    0s
19:22:45 | INFO    |      0     2    0.16831    0   21   88.13500    0.16831   100%     -    0s
19:22:45 | INFO    | H   64    59                      85.1320000    9.65864  88.7%  12.2    0s
19:22:45 | INFO    | H  162    63                      85.1300000   50.08855  41.2%   9.1    0s
19:22:45 | INFO    | 
19:22:45 | INFO    | Cutting planes:
19:22:45 | INFO    |   Learned: 4
19:22:45 | INFO    |   Gomory: 6
19:22:45 | INFO    |   Implied bound: 20
19:22:45 | INFO    |   MIR: 97
19:22:45 | INFO    |   StrongCG: 1
19:22:45 | INFO    |   RLT: 6
19:22:45 | INFO    |   Relax-and-lift: 7
19:22:45 | INFO    | 
19:22:45 | INFO    | Explored 732 nodes (6681 simplex iterations) in 0.14 seconds (0.10 work units)
19:22:45 | INFO    | Thread count was 16 (of 16 available processors)
19:22:45 | INFO    | 
19:22:45 | INFO    | Solution count 7: 85.13 85.132 88.135 ... 113.265
19:22:45 | INFO    | 
19:22:45 | INFO    | Optimal solution found (tolerance 1.00e-02)
19:22:45 | INFO    | Best objective 8.513000000000e+01, best bound 8.513000000000e+01, gap 0.0000%
19:22:45 | INFO    | Solution found | route_duration=85.00 | total_wait=130.00
19:22:45 | INFO    | Objective=85.13 | runtime=0.14s | MIP Gap=0.00%
19:22:45 | INFO    | Generating Excel output | C:\Users\Asus\Documents\GitHub\logistics-model2\internal-logistics-model2\results\SR_SV_RD\case3\result_SR_SV_RD_case3_P5_eps9999_2026_05_06_19_22.xlsx
19:22:45 | INFO    | Excel output written | 12 sheets | C:\Users\Asus\Documents\GitHub\logistics-model2\internal-logistics-model2\results\SR_SV_RD\case3\result_SR_SV_RD_case3_P5_eps9999_2026_05_06_19_22.xlsx
19:22:45 | INFO    | Master Pareto updated | 6 total rows | C:\Users\Asus\Documents\GitHub\logistics-model2\internal-logistics-model2\results\master_pareto.xlsx
19:22:45 | INFO    | Run complete | run_id=SR_SV_RD_case3_P5_eps9999
